c WMC file for PBN EPFL/random_control/int2float_distill_EPFL/random_control/int2float_miter written by probABC
p cnf 288 246
28 -6 8 0
-28 6 0
-28 -8 0
88 -4 -5 0
-88 4 0
-88 5 0
121 -6 7 0
-121 6 0
-121 -7 0
125 2 -121 0
-125 -2 0
-125 121 0
142 -5 7 0
-142 5 0
-142 -7 0
143 -1 4 0
-143 1 0
-143 -4 0
144 -142 -143 0
-144 142 0
-144 143 0
145 5 -6 0
-145 -5 0
-145 6 0
146 -4 -145 0
-146 4 0
-146 145 0
147 144 146 0
-147 -144 0
-147 -146 0
148 -2 147 0
-148 2 0
-148 -147 0
149 5 7 0
-149 -5 0
-149 -7 0
150 -1 -2 0
-150 1 0
-150 2 0
151 -5 150 0
-151 5 0
-151 -150 0
152 -4 -151 0
-152 4 0
-152 151 0
153 149 152 0
-153 -149 0
-153 -152 0
154 6 153 0
-154 -6 0
-154 -153 0
155 148 154 0
-155 -148 0
-155 -154 0
156 -3 155 0
-156 3 0
-156 -155 0
157 -4 7 0
-157 4 0
-157 -7 0
158 3 -157 0
-158 -3 0
-158 157 0
159 4 -6 0
-159 -4 0
-159 6 0
160 158 159 0
-160 -158 0
-160 -159 0
161 -5 160 0
-161 5 0
-161 -160 0
162 156 161 0
-162 -156 0
-162 -161 0
163 8 162 0
-163 -8 0
-163 -162 0
164 6 -7 0
-164 -6 0
-164 7 0
165 -3 -164 0
-165 3 0
-165 164 0
166 125 165 0
-166 -125 0
-166 -165 0
167 -5 166 0
-167 5 0
-167 -166 0
168 -4 -167 0
-168 4 0
-168 167 0
169 -12 168 0
-169 12 0
-169 -168 0
170 12 -168 0
-170 -12 0
-170 168 0
171 169 170 0
-171 -169 0
-171 -170 0
172 -6 88 0
-172 6 0
-172 -88 0
173 -7 -172 0
-173 7 0
-173 172 0
174 -171 173 0
-174 171 0
-174 -173 0
175 163 -174 0
-175 -163 0
-175 174 0
176 9 175 0
-176 -9 0
-176 -175 0
177 7 -8 0
-177 -7 0
-177 8 0
178 -4 -177 0
-178 4 0
-178 177 0
179 -7 8 0
-179 7 0
-179 -8 0
180 3 -179 0
-180 -3 0
-180 179 0
181 178 180 0
-181 -178 0
-181 -180 0
182 -6 181 0
-182 6 0
-182 -181 0
183 -5 -182 0
-183 5 0
-183 182 0
184 -5 -6 0
-184 5 0
-184 6 0
185 -8 184 0
-185 8 0
-185 -184 0
186 -7 -185 0
-186 7 0
-186 185 0
187 183 186 0
-187 -183 0
-187 -186 0
188 176 -187 0
-188 -176 0
-188 187 0
189 10 188 0
-189 -10 0
-189 -188 0
190 -5 -7 0
-190 5 0
-190 7 0
191 -28 -190 0
-191 28 0
-191 190 0
192 177 191 0
-192 -177 0
-192 -191 0
193 -9 192 0
-193 9 0
-193 -192 0
194 189 193 0
-194 -189 0
-194 -193 0
195 11 194 0
-195 -11 0
-195 -194 0
196 -9 -11 0
-196 9 0
-196 11 0
197 9 -10 0
-197 -9 0
-197 10 0
198 -6 -197 0
-198 6 0
-198 197 0
199 196 198 0
-199 -196 0
-199 -198 0
200 -8 199 0
-200 8 0
-200 -199 0
201 -7 -200 0
-201 7 0
-201 200 0
202 -6 -8 0
-202 6 0
-202 8 0
203 -9 202 0
-203 9 0
-203 -202 0
204 11 203 0
-204 -11 0
-204 -203 0
205 -10 204 0
-205 10 0
-205 -204 0
206 201 205 0
-206 -201 0
-206 -205 0
207 195 -206 0
-207 -195 0
-207 206 0
277 168 173 0
-277 -168 0
-277 -173 0
278 163 -277 0
-278 -163 0
-278 277 0
279 9 278 0
-279 -9 0
-279 -278 0
280 -187 279 0
-280 187 0
-280 -279 0
281 10 280 0
-281 -10 0
-281 -280 0
282 193 281 0
-282 -193 0
-282 -281 0
283 11 282 0
-283 -11 0
-283 -282 0
284 -206 283 0
-284 206 0
-284 -283 0
285 -207 284 0
-285 207 0
-285 -284 0
286 207 -284 0
-286 -207 0
-286 284 0
287 285 286 0
-287 -285 0
-287 -286 0
13 287 0
-13 -287 0
13 0
w 1 0.500000
w 2 0.500000
w 3 0.500000
w 4 0.500000
w 5 0.500000
w 6 0.500000
w 7 0.500000
w 8 0.500000
w 9 0.500000
w 10 0.500000
w 11 0.500000
w 12 0.125000
w 28 -1
w 88 -1
w 121 -1
w 125 -1
w 142 -1
w 143 -1
w 144 -1
w 145 -1
w 146 -1
w 147 -1
w 148 -1
w 149 -1
w 150 -1
w 151 -1
w 152 -1
w 153 -1
w 154 -1
w 155 -1
w 156 -1
w 157 -1
w 158 -1
w 159 -1
w 160 -1
w 161 -1
w 162 -1
w 163 -1
w 164 -1
w 165 -1
w 166 -1
w 167 -1
w 168 -1
w 169 -1
w 170 -1
w 171 -1
w 172 -1
w 173 -1
w 174 -1
w 175 -1
w 176 -1
w 177 -1
w 178 -1
w 179 -1
w 180 -1
w 181 -1
w 182 -1
w 183 -1
w 184 -1
w 185 -1
w 186 -1
w 187 -1
w 188 -1
w 189 -1
w 190 -1
w 191 -1
w 192 -1
w 193 -1
w 194 -1
w 195 -1
w 196 -1
w 197 -1
w 198 -1
w 199 -1
w 200 -1
w 201 -1
w 202 -1
w 203 -1
w 204 -1
w 205 -1
w 206 -1
w 207 -1
w 277 -1
w 278 -1
w 279 -1
w 280 -1
w 281 -1
w 282 -1
w 283 -1
w 284 -1
w 285 -1
w 286 -1
w 287 -1
w 13 -1
